
Gurobi 7.5.2 (mac64) logging started Fri Apr 13 00:28:46 2018

Academic license - for non-commercial use only

Gurobi 7.5.2 (mac64) logging started Fri Apr 13 00:30:13 2018

Academic license - for non-commercial use only

Gurobi 7.5.2 (mac64) logging started Fri Apr 13 00:31:04 2018

Academic license - for non-commercial use only

Gurobi 7.5.2 (mac64) logging started Fri Apr 13 00:31:11 2018

Academic license - for non-commercial use only

Gurobi 7.5.2 (mac64) logging started Fri Apr 13 00:31:26 2018

Academic license - for non-commercial use only

Gurobi 7.5.2 (mac64) logging started Fri Apr 13 00:32:01 2018

Academic license - for non-commercial use only

Gurobi 7.5.2 (mac64) logging started Fri Apr 13 00:32:05 2018

Academic license - for non-commercial use only

Gurobi 7.5.2 (mac64) logging started Fri Apr 13 00:32:07 2018

Academic license - for non-commercial use only

Gurobi 7.5.2 (mac64) logging started Fri Apr 13 00:32:09 2018

Academic license - for non-commercial use only

Gurobi 7.5.2 (mac64) logging started Fri Apr 13 00:32:11 2018

Academic license - for non-commercial use only

Gurobi 7.5.2 (mac64) logging started Fri Apr 13 00:33:14 2018

Academic license - for non-commercial use only

Gurobi 7.5.2 (mac64) logging started Fri Apr 13 00:33:40 2018

Academic license - for non-commercial use only

Gurobi 7.5.2 (mac64) logging started Fri Apr 13 01:10:02 2018

Academic license - for non-commercial use only

Gurobi 7.5.2 (mac64) logging started Fri Apr 13 01:11:12 2018

Academic license - for non-commercial use only

Gurobi 7.5.2 (mac64) logging started Fri Apr 13 01:29:07 2018

Academic license - for non-commercial use only

Gurobi 7.5.2 (mac64) logging started Fri Apr 13 01:30:06 2018

Academic license - for non-commercial use only

Gurobi 7.5.2 (mac64) logging started Fri Apr 13 01:41:20 2018

Academic license - for non-commercial use only

Gurobi 7.5.2 (mac64) logging started Fri Apr 13 01:41:25 2018

Academic license - for non-commercial use only

Gurobi 7.5.2 (mac64) logging started Fri Apr 13 01:41:30 2018

Academic license - for non-commercial use only

Gurobi 7.5.2 (mac64) logging started Fri Apr 13 01:43:06 2018

Academic license - for non-commercial use only

Gurobi 7.5.2 (mac64) logging started Fri Apr 13 01:43:11 2018

Academic license - for non-commercial use only

Gurobi 7.5.2 (mac64) logging started Fri Apr 13 01:43:31 2018

Academic license - for non-commercial use only

Gurobi 7.5.2 (mac64) logging started Fri Apr 13 01:43:47 2018

Academic license - for non-commercial use only

Gurobi 7.5.2 (mac64) logging started Fri Apr 13 01:45:42 2018

Academic license - for non-commercial use only

Gurobi 7.5.2 (mac64) logging started Fri Apr 13 01:45:52 2018

Academic license - for non-commercial use only

Gurobi 7.5.2 (mac64) logging started Fri Apr 13 01:46:30 2018

Academic license - for non-commercial use only

Gurobi 7.5.2 (mac64) logging started Fri Apr 13 01:47:12 2018

Academic license - for non-commercial use only

Gurobi 7.5.2 (mac64) logging started Fri Apr 13 01:47:39 2018

Academic license - for non-commercial use only

Gurobi 7.5.2 (mac64) logging started Fri Apr 13 01:48:09 2018

Academic license - for non-commercial use only

Gurobi 7.5.2 (mac64) logging started Fri Apr 13 01:49:54 2018

Academic license - for non-commercial use only

Gurobi 7.5.2 (mac64) logging started Fri Apr 13 01:51:20 2018

Academic license - for non-commercial use only

Gurobi 7.5.2 (mac64) logging started Fri Apr 13 01:51:59 2018

Academic license - for non-commercial use only

Gurobi 7.5.2 (mac64) logging started Fri Apr 13 01:53:25 2018

Academic license - for non-commercial use only

Gurobi 7.5.2 (mac64) logging started Fri Apr 13 01:53:44 2018

Academic license - for non-commercial use only

Gurobi 7.5.2 (mac64) logging started Fri Apr 13 01:54:03 2018

Academic license - for non-commercial use only

Gurobi 7.5.2 (mac64) logging started Fri Apr 13 01:55:26 2018

Academic license - for non-commercial use only

Gurobi 7.5.2 (mac64) logging started Fri Apr 13 01:55:26 2018

Academic license - for non-commercial use only

Gurobi 7.5.2 (mac64) logging started Fri Apr 13 01:55:27 2018

Academic license - for non-commercial use only

Gurobi 7.5.2 (mac64) logging started Fri Apr 13 01:55:27 2018

Academic license - for non-commercial use only

Gurobi 7.5.2 (mac64) logging started Fri Apr 13 01:55:28 2018

Academic license - for non-commercial use only

Gurobi 7.5.2 (mac64) logging started Fri Apr 13 01:55:29 2018

Academic license - for non-commercial use only

Gurobi 7.5.2 (mac64) logging started Fri Apr 13 01:55:29 2018

Academic license - for non-commercial use only

Gurobi 7.5.2 (mac64) logging started Fri Apr 13 01:55:30 2018

Academic license - for non-commercial use only

Gurobi 7.5.2 (mac64) logging started Fri Apr 13 01:55:31 2018

Academic license - for non-commercial use only

Gurobi 7.5.2 (mac64) logging started Fri Apr 13 01:55:31 2018

Academic license - for non-commercial use only

Gurobi 7.5.2 (mac64) logging started Fri Apr 13 01:55:32 2018

Academic license - for non-commercial use only

Gurobi 7.5.2 (mac64) logging started Fri Apr 13 01:55:33 2018

Academic license - for non-commercial use only

Gurobi 7.5.2 (mac64) logging started Fri Apr 13 01:55:33 2018

Academic license - for non-commercial use only

Gurobi 7.5.2 (mac64) logging started Fri Apr 13 01:55:34 2018

Academic license - for non-commercial use only

Gurobi 7.5.2 (mac64) logging started Fri Apr 13 01:55:35 2018

Academic license - for non-commercial use only

Gurobi 7.5.2 (mac64) logging started Fri Apr 13 01:55:35 2018

Academic license - for non-commercial use only

Gurobi 7.5.2 (mac64) logging started Fri Apr 13 01:55:36 2018

Academic license - for non-commercial use only

Gurobi 7.5.2 (mac64) logging started Fri Apr 13 01:55:37 2018

Academic license - for non-commercial use only

Gurobi 7.5.2 (mac64) logging started Fri Apr 13 01:55:37 2018

Academic license - for non-commercial use only

Gurobi 7.5.2 (mac64) logging started Fri Apr 13 01:55:38 2018

Academic license - for non-commercial use only

Gurobi 7.5.2 (mac64) logging started Fri Apr 13 01:55:39 2018

Academic license - for non-commercial use only

Gurobi 7.5.2 (mac64) logging started Fri Apr 13 01:55:39 2018

Academic license - for non-commercial use only

Gurobi 7.5.2 (mac64) logging started Fri Apr 13 01:55:40 2018

Academic license - for non-commercial use only

Gurobi 7.5.2 (mac64) logging started Fri Apr 13 01:55:41 2018

Academic license - for non-commercial use only

Gurobi 7.5.2 (mac64) logging started Fri Apr 13 01:55:41 2018

Academic license - for non-commercial use only

Gurobi 7.5.2 (mac64) logging started Fri Apr 13 01:55:42 2018

Academic license - for non-commercial use only

Gurobi 7.5.2 (mac64) logging started Fri Apr 13 01:55:43 2018

Academic license - for non-commercial use only

Gurobi 7.5.2 (mac64) logging started Fri Apr 13 01:55:43 2018

Academic license - for non-commercial use only

Gurobi 7.5.2 (mac64) logging started Fri Apr 13 01:55:44 2018

Academic license - for non-commercial use only

Gurobi 7.5.2 (mac64) logging started Fri Apr 13 01:55:45 2018

Academic license - for non-commercial use only

Gurobi 7.5.2 (mac64) logging started Fri Apr 13 01:55:46 2018

Academic license - for non-commercial use only

Gurobi 7.5.2 (mac64) logging started Fri Apr 13 01:55:47 2018

Academic license - for non-commercial use only

Gurobi 7.5.2 (mac64) logging started Fri Apr 13 01:55:47 2018

Academic license - for non-commercial use only

Gurobi 7.5.2 (mac64) logging started Fri Apr 13 01:55:48 2018

Academic license - for non-commercial use only

Gurobi 7.5.2 (mac64) logging started Fri Apr 13 01:55:49 2018

Academic license - for non-commercial use only

Gurobi 7.5.2 (mac64) logging started Fri Apr 13 01:55:49 2018

Academic license - for non-commercial use only

Gurobi 7.5.2 (mac64) logging started Fri Apr 13 01:55:50 2018

Academic license - for non-commercial use only

Gurobi 7.5.2 (mac64) logging started Fri Apr 13 01:55:51 2018

Academic license - for non-commercial use only

Gurobi 7.5.2 (mac64) logging started Fri Apr 13 01:55:51 2018

Academic license - for non-commercial use only

Gurobi 7.5.2 (mac64) logging started Fri Apr 13 01:55:52 2018

Academic license - for non-commercial use only

Gurobi 7.5.2 (mac64) logging started Fri Apr 13 01:55:53 2018

Academic license - for non-commercial use only

Gurobi 7.5.2 (mac64) logging started Fri Apr 13 01:55:53 2018

Academic license - for non-commercial use only

Gurobi 7.5.2 (mac64) logging started Fri Apr 13 01:55:54 2018

Academic license - for non-commercial use only

Gurobi 7.5.2 (mac64) logging started Fri Apr 13 01:59:06 2018

Academic license - for non-commercial use only

Gurobi 7.5.2 (mac64) logging started Fri Apr 13 01:59:07 2018

Academic license - for non-commercial use only

Gurobi 7.5.2 (mac64) logging started Fri Apr 13 01:59:08 2018

Academic license - for non-commercial use only

Gurobi 7.5.2 (mac64) logging started Fri Apr 13 01:59:08 2018

Academic license - for non-commercial use only

Gurobi 7.5.2 (mac64) logging started Fri Apr 13 01:59:09 2018

Academic license - for non-commercial use only

Gurobi 7.5.2 (mac64) logging started Fri Apr 13 01:59:10 2018

Academic license - for non-commercial use only

Gurobi 7.5.2 (mac64) logging started Fri Apr 13 01:59:10 2018

Academic license - for non-commercial use only

Gurobi 7.5.2 (mac64) logging started Fri Apr 13 01:59:11 2018

Academic license - for non-commercial use only

Gurobi 7.5.2 (mac64) logging started Fri Apr 13 01:59:12 2018

Academic license - for non-commercial use only

Gurobi 7.5.2 (mac64) logging started Fri Apr 13 02:00:02 2018

Academic license - for non-commercial use only

Gurobi 7.5.2 (mac64) logging started Fri Apr 13 02:00:32 2018

Academic license - for non-commercial use only

Gurobi 7.5.2 (mac64) logging started Fri Apr 13 02:01:16 2018

Academic license - for non-commercial use only

Gurobi 7.5.2 (mac64) logging started Fri Apr 13 02:01:24 2018

Academic license - for non-commercial use only

Gurobi 7.5.2 (mac64) logging started Fri Apr 13 02:01:32 2018

Academic license - for non-commercial use only

Gurobi 7.5.2 (mac64) logging started Fri Apr 13 02:02:28 2018

Academic license - for non-commercial use only

Gurobi 7.5.2 (mac64) logging started Fri Apr 13 02:03:01 2018

Academic license - for non-commercial use only

Gurobi 7.5.2 (mac64) logging started Fri Apr 13 02:03:30 2018

Academic license - for non-commercial use only

Gurobi 7.5.2 (mac64) logging started Fri Apr 13 02:06:48 2018

Academic license - for non-commercial use only

Gurobi 7.5.2 (mac64) logging started Fri Apr 13 02:07:24 2018

Academic license - for non-commercial use only

Gurobi 7.5.2 (mac64) logging started Fri Apr 13 02:07:30 2018

Academic license - for non-commercial use only

Gurobi 7.5.2 (mac64) logging started Fri Apr 13 02:09:27 2018

Academic license - for non-commercial use only

Gurobi 7.5.2 (mac64) logging started Fri Apr 13 02:10:13 2018

Academic license - for non-commercial use only

Gurobi 7.5.2 (mac64) logging started Fri Apr 13 02:11:47 2018

Academic license - for non-commercial use only

Gurobi 7.5.2 (mac64) logging started Fri Apr 13 02:11:53 2018

Academic license - for non-commercial use only

Gurobi 7.5.2 (mac64) logging started Fri Apr 13 02:12:14 2018

Academic license - for non-commercial use only

Gurobi 7.5.2 (mac64) logging started Fri Apr 13 02:12:56 2018

Academic license - for non-commercial use only

Gurobi 7.5.2 (mac64) logging started Fri Apr 13 02:13:09 2018

Academic license - for non-commercial use only

Gurobi 7.5.2 (mac64) logging started Fri Apr 13 02:20:49 2018

Academic license - for non-commercial use only

Gurobi 7.5.2 (mac64) logging started Fri Apr 13 02:21:34 2018

Academic license - for non-commercial use only

Gurobi 7.5.2 (mac64) logging started Fri Apr 13 02:30:35 2018

Academic license - for non-commercial use only

Gurobi 7.5.2 (mac64) logging started Fri Apr 13 02:31:12 2018

Academic license - for non-commercial use only

Gurobi 7.5.2 (mac64) logging started Fri Apr 13 02:31:26 2018

Academic license - for non-commercial use only

Gurobi 7.5.2 (mac64) logging started Fri Apr 13 02:31:55 2018

Academic license - for non-commercial use only

Gurobi 7.5.2 (mac64) logging started Fri Apr 13 02:32:11 2018

Academic license - for non-commercial use only

Gurobi 7.5.2 (mac64) logging started Fri Apr 13 02:32:33 2018

Academic license - for non-commercial use only

Gurobi 7.5.2 (mac64) logging started Fri Apr 13 02:33:09 2018

Academic license - for non-commercial use only

Gurobi 7.5.2 (mac64) logging started Fri Apr 13 02:34:52 2018

Academic license - for non-commercial use only

Gurobi 7.5.2 (mac64) logging started Fri Apr 13 02:35:02 2018

Academic license - for non-commercial use only

Gurobi 7.5.2 (mac64) logging started Fri Apr 13 02:35:20 2018

Academic license - for non-commercial use only

Gurobi 7.5.2 (mac64) logging started Fri Apr 13 02:35:32 2018

Academic license - for non-commercial use only

Gurobi 7.5.2 (mac64) logging started Fri Apr 13 02:35:36 2018

Academic license - for non-commercial use only

Gurobi 7.5.2 (mac64) logging started Fri Apr 13 02:35:39 2018

Academic license - for non-commercial use only

Gurobi 7.5.2 (mac64) logging started Fri Apr 13 02:35:41 2018

Academic license - for non-commercial use only

Gurobi 7.5.2 (mac64) logging started Fri Apr 13 02:35:48 2018

Academic license - for non-commercial use only
